32402
0 0 1 0 1 0 1 0 0 0 1 0 1 1 1 0 0 1 1 1 0 0 0 1 1 1 1 0 1 1 
18 19 2 18 14 12 2 28 18 28 4 19 13 23 19 18 13 10 18 17 18 24 23 24 10 18 28 19 29 2 19 4 4 24 28 6 10 26 24 24 18 26 6 29 26 4 13 2 19 26 24 24 17 24 13 6 25 26 18 25 29 17 18 14 13 12 23 14 19 12 18 12 19 26 23 23 10 10 26 24 23 17 26 25 29 10 4 23 28 25 28 6 25 25 10 13 28 6 17 28 19 2 12 25 4 17 4 24 18 13 19 4 28 12 12 14 6 25 17 26 26 12 19 19 26 24 2 12 4 17 28 24 12 10 23 26 13 13 28 14 12 18 6 25 25 2 24 2 28 25 24 14 23 17 13 6 2 24 13 13 10 28 10 17 23 28 23 4 13 2 13 14 19 14 4 14 17 10 29 10 23 2 14 6 12 26 6 23 17 2 2 2 6 4 25 6 25 2 14 19 
